
Gurobi 9.5.2 (win64) logging started Mon Mar 27 20:26:03 2023

Set parameter LogFile to value "2023-03-27_20hr-25min-09sec/Nodes10_Arcs35_LocNodes8/Formulation-2Instance-5.log"
Set parameter TimeLimit to value 600
Set parameter IntFeasTol to value 1e-09
Set parameter DualReductions to value 0
Set parameter NonConvex to value 2
Gurobi Optimizer version 9.5.2 build v9.5.2rc0 (win64)
Thread count: 4 physical cores, 8 logical processors, using up to 8 threads
Optimize a model with 64 rows, 116 columns and 282 nonzeros
Model fingerprint: 0x2d51082c
Model has 45 quadratic objective terms
Model has 45 SOS constraints
Variable types: 108 continuous, 8 integer (8 binary)
Coefficient statistics:
  Matrix range     [5e-02, 2e+02]
  Objective range  [1e-01, 1e+03]
  QObjective range [1e-01, 7e+00]
  Bounds range     [1e+00, 1e+00]
  RHS range        [1e-01, 1e+03]
Presolve time: 0.00s
Presolved: 64 rows, 116 columns, 282 nonzeros
Presolved model has 45 SOS constraint(s)
Presolved model has 45 quadratic objective terms
Variable types: 108 continuous, 8 integer (8 binary)

Root relaxation: objective 1.080809e+05, 163 iterations, 0.00 seconds (0.00 work units)

    Nodes    |    Current Node    |     Objective Bounds      |     Work
 Expl Unexpl |  Obj  Depth IntInf | Incumbent    BestBd   Gap | It/Node Time

     0     0 108080.899    0    6          - 108080.899      -     -    0s
H    0     0                    86546.412047 108080.899  24.9%     -    0s
H    0     0                    95499.205184 108080.899  13.2%     -    0s
H    0     0                    107445.38064 108059.286  0.57%     -    0s

Cutting planes:
  Flow cover: 1

Explored 1 nodes (163 simplex iterations) in 0.07 seconds (0.01 work units)
Thread count was 8 (of 8 available processors)

Solution count 3: 107445 95499.2 86546.4 

Optimal solution found (tolerance 1.00e-04)
Best objective 1.074453806376e+05, best bound 1.074479560156e+05, gap 0.0024%

User-callback calls 156, time in user-callback 0.00 sec
